11188.0 1153657.0 
11028.0 1162205.0 
10997.0 1174328.0 
11054.0 1160463.0 
11171.0 1153917.0 
11052.0 1161450.0 
11202.0 1153455.0 
11100.0 1154261.0 
11302.0 1151689.0 
11211.0 1153304.0 
11006.0 1164937.0 
11218.0 1152735.0 
11001.0 1169693.0 
11084.0 1156980.0 
11023.0 1162754.0 
11057.0 1160305.0 
10998.0 1171300.0 
11021.0 1164816.0 
